db/data/29189162211301452402040187123222330632.z3.out
-------------------
2500.183372006
